
Gurobi 13.0.1 (linux64, C++) logging started Mon Feb  9 12:47:15 2026

Set parameter Username
Set parameter LicenseID to value 2776799
Set parameter LogFile to value "atsp_mtz.log"
Academic license - for non-commercial use only - expires 2027-02-09
Set parameter TimeLimit to value 600
Set parameter Threads to value 1
Warning: linear constraint 0 and linear constraint 17 have the same name "out(0)"
Gurobi Optimizer version 13.0.1 build v13.0.1rc0 (linux64 - "Ubuntu 24.04.3 LTS")

CPU model: 11th Gen Intel(R) Core(TM) i5-1135G7 @ 2.40GHz, instruction set [SSE2|AVX|AVX2|AVX512]
Thread count: 4 physical cores, 8 logical processors, using up to 1 threads

Non-default parameters:
TimeLimit  600
Threads  1

Optimize a model with 275 rows, 289 columns and 1265 nonzeros (Min)
Model fingerprint: 0x1b2c4ada
Model has 236 linear objective coefficients
Variable types: 0 continuous, 289 integer (272 binary)
Coefficient statistics:
  Matrix range     [1e+00, 2e+01]
  Objective range  [3e+00, 7e+01]
  Bounds range     [1e+00, 2e+01]
  RHS range        [1e+00, 2e+01]

Presolve removed 1 rows and 1 columns
Presolve time: 0.00s
Presolved: 274 rows, 288 columns, 1264 nonzeros
Variable types: 0 continuous, 288 integer (272 binary)
Found heuristic solution: objective 368.0000000

Root relaxation: objective 2.250000e+00, 55 iterations, 0.00 seconds (0.00 work units)

    Nodes    |    Current Node    |     Objective Bounds      |     Work
 Expl Unexpl |  Obj  Depth IntInf | Incumbent    BestBd   Gap | It/Node Time

     0     0    2.25000    0   23  368.00000    2.25000  99.4%     -    0s
H    0     0                     358.0000000    2.25000  99.4%     -    0s
     0     0   18.26786    0   41  358.00000   18.26786  94.9%     -    0s
     0     0   18.26786    0   40  358.00000   18.26786  94.9%     -    0s
     0     0   23.00000    0   47  358.00000   23.00000  93.6%     -    0s
     0     0   28.00000    0   45  358.00000   28.00000  92.2%     -    0s
     0     0   28.00000    0   43  358.00000   28.00000  92.2%     -    0s
     0     0   28.00000    0   29  358.00000   28.00000  92.2%     -    0s
H    0     0                      47.0000000   28.00000  40.4%     -    0s
     0     0   28.00000    0   34   47.00000   28.00000  40.4%     -    0s
     0     0   28.00000    0   34   47.00000   28.00000  40.4%     -    0s
     0     0   28.00000    0   36   47.00000   28.00000  40.4%     -    0s
     0     0   28.00000    0   12   47.00000   28.00000  40.4%     -    0s
     0     0   28.00000    0   15   47.00000   28.00000  40.4%     -    0s
     0     0   28.00000    0   43   47.00000   28.00000  40.4%     -    0s
     0     0   28.00000    0   14   47.00000   28.00000  40.4%     -    0s
     0     0   28.00000    0   15   47.00000   28.00000  40.4%     -    0s
     0     0   28.00000    0   32   47.00000   28.00000  40.4%     -    0s
     0     0   28.00000    0   21   47.00000   28.00000  40.4%     -    0s
     0     0   28.00000    0   27   47.00000   28.00000  40.4%     -    0s
     0     0   28.00000    0   31   47.00000   28.00000  40.4%     -    0s
     0     0   28.00000    0   12   47.00000   28.00000  40.4%     -    0s
     0     0   28.00000    0   12   47.00000   28.00000  40.4%     -    0s
     0     0   28.00000    0   12   47.00000   28.00000  40.4%     -    0s
H    0     0                      46.0000000   28.00000  39.1%     -    0s
H    0     0                      44.0000000   28.00000  36.4%     -    0s
     0     0   28.00000    0   26   44.00000   28.00000  36.4%     -    0s
H    0     0                      39.0000000   28.00000  28.2%     -    0s
     0     0   28.00000    0   39   39.00000   28.00000  28.2%     -    0s
     0     0   28.00000    0   22   39.00000   28.00000  28.2%     -    0s
     0     0   28.00000    0   36   39.00000   28.00000  28.2%     -    0s
     0     0   28.00000    0   35   39.00000   28.00000  28.2%     -    0s
     0     0   28.00000    0   23   39.00000   28.00000  28.2%     -    0s
     0     0   28.00000    0   16   39.00000   28.00000  28.2%     -    0s
     0     0   28.00000    0   23   39.00000   28.00000  28.2%     -    0s
     0     0   28.00000    0   30   39.00000   28.00000  28.2%     -    0s
     0     0   28.00000    0   20   39.00000   28.00000  28.2%     -    0s
     0     0   28.00000    0   28   39.00000   28.00000  28.2%     -    0s
     0     0   28.00000    0   31   39.00000   28.00000  28.2%     -    0s
     0     0   28.00000    0   12   39.00000   28.00000  28.2%     -    0s
     0     0   28.00000    0   22   39.00000   28.00000  28.2%     -    0s
     0     0   28.00000    0   18   39.00000   28.00000  28.2%     -    0s
     0     0   28.00000    0   17   39.00000   28.00000  28.2%     -    0s
     0     0   28.00000    0   17   39.00000   28.00000  28.2%     -    0s
     0     0   28.00000    0   30   39.00000   28.00000  28.2%     -    0s
     0     0   28.00000    0   27   39.00000   28.00000  28.2%     -    0s
     0     0   28.00000    0   20   39.00000   28.00000  28.2%     -    0s
     0     0   28.00000    0   38   39.00000   28.00000  28.2%     -    0s
     0     0   28.00000    0   23   39.00000   28.00000  28.2%     -    0s
     0     0   28.00000    0   23   39.00000   28.00000  28.2%     -    0s
     0     0   28.00000    0   15   39.00000   28.00000  28.2%     -    0s
     0     2   28.00000    0   15   39.00000   28.00000  28.2%     -    0s

Cutting planes:
  Learned: 9
  Gomory: 3
  Cover: 9
  Implied bound: 45
  MIR: 23
  Inf proof: 23
  Zero half: 2
  Mod-K: 5
  RLT: 8
  Relax-and-lift: 25
  PSD: 6

Explored 980 nodes (9137 simplex iterations) in 0.41 seconds (0.32 work units)
Thread count was 1 (of 8 available processors)

Solution count 6: 39 44 46 ... 368

Optimal solution found (tolerance 1.00e-04)
Best objective 3.900000000000e+01, best bound 3.900000000000e+01, gap 0.0000%
